(set-logic HORN)
(declare-fun state (Int (Array Int Int) (Array Int Int) (Array Int Int) (Array Int Int) Int Int (Array Int Int) (Array Int Int) Int Int Int Int Int Int Int Int Int Int Int Bool Bool Bool Int (Array Int Int)) Bool)
(assert (forall ((|A| Int) (|V| (Array Int Int)) (|C| (Array Int Int)) (|D| (Array Int Int)) (|E| (Array Int Int)) (|W| Int) (|G| Int) (|H| (Array Int Int)) (|I| (Array Int Int)) (|X| Int) (|K| Int) (|L| Int) (|M| Int) (|N| Int) (|O| Int) (|P| Int) (|Q| Int) (|R| Int) (|S| Int) (|T| Int) (|U| Bool) (|.loc.3| Bool) (|.loc.4| Bool) (|V_1| Int) (|V_0| (Array Int Int)) (|.x.79| Int) (|.x.77| (Array Int Int)) (|.x.75| Int) (|.x.73| (Array Int Int)) (|.x.69| Int) (|.x.71| (Array Int Int)) (|.x.88| Int) (|.x.82| Int) (|.x.72| (Array Int Int)) (|.x.70| (Array Int Int)) (|.x.76| (Array Int Int)) (|.x.84| Int) (|.x.87| Int) (|.x.86| Int) (|.x.83| Int) (|.x.74| Int) (|.x.78| Int) (|.x.85| Int) (|.x.81| Int) (|U_3| Bool) (|.x.80| Int) (|.loc.6| Bool) (|.loc.5| Bool) (|.xtv.1| Int) (|.xtv.2| (Array Int Int))) (=> (and (and (not .loc.3) (not .loc.4)) (and (and (and (and (and (= D E) (not U)) (= W G)) (= X K)) (= H I)) (= V C))) (state |A| |V| |C| |D| |E| |W| |G| |H| |I| |X| |K| |L| |M| |N| |O| |P| |Q| |R| |S| |T| |U| |.loc.3| |.loc.4| |V_1| |V_0|))))
(assert (forall ((|A| Int) (|V| (Array Int Int)) (|C| (Array Int Int)) (|D| (Array Int Int)) (|E| (Array Int Int)) (|W| Int) (|G| Int) (|H| (Array Int Int)) (|I| (Array Int Int)) (|X| Int) (|K| Int) (|L| Int) (|M| Int) (|N| Int) (|O| Int) (|P| Int) (|Q| Int) (|R| Int) (|S| Int) (|T| Int) (|U| Bool) (|.loc.3| Bool) (|.loc.4| Bool) (|V_1| Int) (|V_0| (Array Int Int)) (|.x.79| Int) (|.x.77| (Array Int Int)) (|.x.75| Int) (|.x.73| (Array Int Int)) (|.x.69| Int) (|.x.71| (Array Int Int)) (|.x.88| Int) (|.x.82| Int) (|.x.72| (Array Int Int)) (|.x.70| (Array Int Int)) (|.x.76| (Array Int Int)) (|.x.84| Int) (|.x.87| Int) (|.x.86| Int) (|.x.83| Int) (|.x.74| Int) (|.x.78| Int) (|.x.85| Int) (|.x.81| Int) (|U_3| Bool) (|.x.80| Int) (|.loc.6| Bool) (|.loc.5| Bool) (|.xtv.1| Int) (|.xtv.2| (Array Int Int))) (=> (and (state |A| |V| |C| |D| |E| |W| |G| |H| |I| |X| |K| |L| |M| |N| |O| |P| |Q| |R| |S| |T| |U| |.loc.3| |.loc.4| |V_1| |V_0|) (let ((.def_35 (not .loc.3))) (let ((.def_36 (not .loc.4))) (let ((.def_94 (= V_1 (select (select .x.72 .x.84) .x.87)))) (let ((.def_97 (= .x.82 .x.86))) (let ((.def_99 (= .x.87 .x.86))) (let ((.def_102 (= .x.88 .x.83))) (let ((.def_105 (= .x.84 .x.83))) (let ((.def_111 (and (= (store D .x.88 (store (select D .x.88) .x.82 0)) .x.72) (and (= (store V_0 .x.88 1) .x.70) (and (= (store H .x.88 4) .x.76) (and (= (select V_0 .x.88) 0) (and (not (= .x.88 0)) (and (and (= .x.82 0) (and (and (and (and (not (<= .x.69 .x.88)) .def_94) .def_97) .def_99) .def_102)) .def_105)))))))) (let ((.def_121 (or U (and (= V_0 (store V 0 0)) (and (= .x.74 0) (= .x.78 0)))))) (let ((.def_127 (and .def_97 (and .def_105 (and .def_94 (and .def_99 .def_102)))))) (let ((.def_130 (= T .x.88))) (let ((.def_133 (= Q .x.85))) (let ((.def_135 (= N .x.82))) (let ((.def_137 (= X .x.78))) (let ((.def_139 (= H .x.76))) (let ((.def_141 (= W .x.74))) (let ((.def_143 (= V .x.70))) (let ((.def_149 (or U (= .x.72 (store D P (store (select D P) S 1)))))) (let ((.def_152 (= V_1 1))) (let ((.def_155 (= M .x.81))) (let ((.def_180 (= U U_3))) (let ((.def_195 (not .loc.6))) (let ((.def_198 (or U_3 (not .def_152)))) (let ((.def_202 (and U U_3))) (let ((.def_225 (not .loc.5))) (and (and (= K .x.79) (and (= I .x.77) (and (= G .x.75) (and (= E .x.73) (and (= A .x.69) (= C .x.71)))))) (or (or (and (or (or (and (or (and (or (and .def_35 (and (or U .def_111) .def_121)) (and (and (and (and (and (and (and (and (and .loc.3 (or U .def_127)) .def_130) .def_133) .def_135) .def_137) .def_139) .def_141) .def_143) .def_149)) (and .def_36 (and (or U .def_152) (and .def_155 U_3)))) (and (= L .x.80) (and (= O .x.83) (and (= P .x.84) (and (= R .x.86) (and (= S .x.87) (and (and (or U_3 (= .x.70 (store V T 0))) (and (or U_3 (= .x.85 .x.81)) (and .def_149 (and .def_141 (and .def_139 (and .def_137 (and .def_133 (and .loc.4 .def_35)))))))) .def_180))))))) .loc.6) (and (or .def_111 U_3) (and (and (and .def_180 (and .def_36 (and .def_35 (and .def_121 .def_155)))) .def_195) .def_198))) (and .def_195 (and .def_36 (and .def_35 (and .def_155 (and .def_121 .def_202)))))) .loc.5) (and (or .def_127 U_3) (and (and .def_198 (and .def_180 (and .def_149 (and .def_143 (and .def_141 (and .def_139 (and .def_137 (and .def_135 (and .def_133 (and .def_130 (and .loc.6 (and .def_36 (and .loc.3 .def_155))))))))))))) .def_225))) (and .def_225 (and .def_149 (and .def_143 (and .def_141 (and .def_139 (and .def_137 (and .def_135 (and .def_133 (and .def_130 (and .loc.6 (and .def_36 (and .loc.3 (and .def_155 .def_202))))))))))))))))))))))))))))))))))))))))) (state |.x.69| |.x.70| |.x.71| |.x.72| |.x.73| |.x.74| |.x.75| |.x.76| |.x.77| |.x.78| |.x.79| |.x.80| |.x.81| |.x.82| |.x.83| |.x.84| |.x.85| |.x.86| |.x.87| |.x.88| |U_3| |.loc.5| |.loc.6| |.xtv.1| |.xtv.2|))))
(assert (forall ((|A| Int) (|V| (Array Int Int)) (|C| (Array Int Int)) (|D| (Array Int Int)) (|E| (Array Int Int)) (|W| Int) (|G| Int) (|H| (Array Int Int)) (|I| (Array Int Int)) (|X| Int) (|K| Int) (|L| Int) (|M| Int) (|N| Int) (|O| Int) (|P| Int) (|Q| Int) (|R| Int) (|S| Int) (|T| Int) (|U| Bool) (|.loc.3| Bool) (|.loc.4| Bool) (|V_1| Int) (|V_0| (Array Int Int)) (|.x.79| Int) (|.x.77| (Array Int Int)) (|.x.75| Int) (|.x.73| (Array Int Int)) (|.x.69| Int) (|.x.71| (Array Int Int)) (|.x.88| Int) (|.x.82| Int) (|.x.72| (Array Int Int)) (|.x.70| (Array Int Int)) (|.x.76| (Array Int Int)) (|.x.84| Int) (|.x.87| Int) (|.x.86| Int) (|.x.83| Int) (|.x.74| Int) (|.x.78| Int) (|.x.85| Int) (|.x.81| Int) (|U_3| Bool) (|.x.80| Int) (|.loc.6| Bool) (|.loc.5| Bool) (|.xtv.1| Int) (|.xtv.2| (Array Int Int))) (=> (state |A| |V| |C| |D| |E| |W| |G| |H| |I| |X| |K| |L| |M| |N| |O| |P| |Q| |R| |S| |T| |U| |.loc.3| |.loc.4| |V_1| |V_0|) (not (and U (and .loc.3 .loc.4))))))
(check-sat)
